N = 12;
H = 5;
T = 2;

avail = array3d(1..N, 1..H, 1..T, [8, 9, 5, 8, 7, 7, 4, 7, 10, 8, 4, 6, 9, 2, 1, 9, 2, 6, 6, 9, 10, 5, 10, 9, 0, 5, 0, 3, 3, 7, 9, 2, 6, 10, 1, 1, 6, 1, 9, 9, 7, 5, 4, 7, 4, 4, 1, 1, 5, 1, 9, 0, 4, 5, 8, 1, 2, 8, 3, 6, 7, 5, 2, 7, 9, 9, 3, 10, 5, 10, 7, 1, 4, 7, 5, 9, 0, 1, 5, 9, 3, 0, 6, 9, 3, 9, 2, 3, 8, 1, 4, 1, 10, 4, 6, 1, 6, 1, 7, 3, 8, 2, 3, 0, 4, 3, 8, 3, 7, 2, 8, 3, 1, 6, 2, 6, 1, 6, 3, 6]);

r = array2d(1..H, 1..T, [4, 5, 1, 4, 2, 6, 3, 3, 1, 2]);
